Problem:    02
Rows:       4
Columns:    2
Non-zeros:  8
Status:     OPTIMAL
Objective:  Profitto = 600 (MAXimum)

   No.   Row name   St   Activity     Lower bound   Upper bound    Marginal
------ ------------ -- ------------- ------------- ------------- -------------
     1 limAcq[1]    NU          6000                        6000           0.1 
     2 limAcq[2]    B           2000                        4000 
     3 limAcq[3]    B           6000                        8000 
     4 Profitto     B            600                             

   No. Column name  St   Activity     Lower bound   Upper bound    Marginal
------ ------------ -- ------------- ------------- ------------- -------------
     1 acquisto[1]  NL             0             0                       < eps
     2 acquisto[2]  B          20000             0               

Karush-Kuhn-Tucker optimality conditions:

KKT.PE: max.abs.err = 0.00e+00 on row 0
        max.rel.err = 0.00e+00 on row 0
        High quality

KKT.PB: max.abs.err = 0.00e+00 on row 0
        max.rel.err = 0.00e+00 on row 0
        High quality

KKT.DE: max.abs.err = 0.00e+00 on column 0
        max.rel.err = 0.00e+00 on column 0
        High quality

KKT.DB: max.abs.err = 0.00e+00 on row 0
        max.rel.err = 0.00e+00 on row 0
        High quality

End of output
